Problem:    
Rows:       75
Columns:    114 (114 integer, 114 binary)
Non-zeros:  460
Status:     INTEGER OPTIMAL
Objective:  score = 912.45 (MAXimum)

   No.   Row name        Activity     Lower bound   Upper bound
------ ------------    ------------- ------------- -------------
     1 index_0                     0             0               
     2 index_1                     0             0               
     3 index_2                     0             0               
     4 index_3                     0             0               
     5 index_4                     1             0               
     6 index_5                     3             0               
     7 index_6                     1             0               
     8 index_7                     0             0               
     9 index_8                     0             0               
    10 index_9                     0             0               
    11 index_10                    0             0               
    12 index_11                    0             0               
    13 index_12                    0             0               
    14 index_13                    0             0               
    15 index_14                    0             0               
    16 index_15                    0             0               
    17 index_16                    0             0               
    18 index_17                    0             0               
    19 index_18                    0             0               
    20 index_19                    2             0               
    21 index_20                    1             0               
    22 index_21                    0             0               
    23 index_22                    0             0               
    24 index_23                    0             0               
    25 index_24                    0             0               
    26 index_25                    0             0               
    27 index_26                    0             0               
    28 index_27                    0             0               
    29 index_28                    0             0               
    30 index_29                    0             0               
    31 index_30                    0             0               
    32 index_31                    0             0               
    33 index_32                    2             0               
    34 index_33                    1             0               
    35 index_34                    0             0               
    36 index_35                    0             0               
    37 index_36                    0             0               
    38 index_37                    1             0               
    39 index_38                    2             0               
    40 index_39                    0             0               
    41 index_40                    0             0               
    42 index_41                    0             0               
    43 index_42                    1             0               
    44 index_43                    1             0               
    45 index_44                    0             0               
    46 index_45                    1             0               
    47 index_46                    0             0               
    48 index_47                    0             0               
    49 index_48                    0             0               
    50 index_49                    0             0               
    51 index_50                    0             0               
    52 index_51                    0             0               
    53 index_52                    1             0               
    54 index_53                    0             0               
    55 index_54                    0             0               
    56 index_55                    0             0               
    57 index_56                    0             0               
    58 index_57                    3             0               
    59 index_58                    0             0               
    60 index_59                    0             0               
    61 index_60                    1             0               
    62 index_61                    1             0               
    63 index_62                    1             0               
    64 index_63                    2             0               
    65 index_64                    2             0               
    66 index_65                    0             0               
    67 index_66                    0             0               
    68 index_67                    0             0               
    69 index_68                    1             0               
    70 index_69                    1             0               
    71 index_70                    1             0               
    72 index_71                    0             0               
    73 index_72                    0             0               
    74 index_73                    0             0               
    75 length                      7                           7 

   No. Column name       Activity     Lower bound   Upper bound
------ ------------    ------------- ------------- -------------
     1 c0           *              1             0             1 
     2 c1           *              0             0             1 
     3 c2           *              1             0             1 
     4 c3           *              1             0             1 
     5 c4           *              1             0             1 
     6 c5           *              1             0             1 
     7 c6           *              1             0             1 
     8 c7           *              1             0             1 
     9 c8           *              0             0             1 
    10 c9           *              1             0             1 
    11 c10          *              0             0             1 
    12 c11          *              0             0             1 
    13 c12          *              1             0             1 
    14 c13          *              1             0             1 
    15 c14          *              1             0             1 
    16 c15          *              0             0             1 
    17 c16          *              1             0             1 
    18 c17          *              1             0             1 
    19 c18          *              1             0             1 
    20 c19          *              1             0             1 
    21 c20          *              1             0             1 
    22 c21          *              1             0             1 
    23 c22          *              1             0             1 
    24 c23          *              0             0             1 
    25 c24          *              1             0             1 
    26 c25          *              1             0             1 
    27 c26          *              0             0             1 
    28 c27          *              0             0             1 
    29 c28          *              1             0             1 
    30 c29          *              1             0             1 
    31 c30          *              1             0             1 
    32 c31          *              0             0             1 
    33 c32          *              1             0             1 
    34 c33          *              1             0             1 
    35 c34          *              1             0             1 
    36 c35          *              1             0             1 
    37 c36          *              0             0             1 
    38 c37          *              1             0             1 
    39 c38          *              1             0             1 
    40 c39          *              1             0             1 
    41 c40          *              1             0             1 
    42 c41          *              1             0             1 
    43 c42          *              1             0             1 
    44 c43          *              1             0             1 
    45 c44          *              1             0             1 
    46 c45          *              1             0             1 
    47 c46          *              1             0             1 
    48 c47          *              1             0             1 
    49 c48          *              1             0             1 
    50 c49          *              1             0             1 
    51 c50          *              1             0             1 
    52 c51          *              1             0             1 
    53 c52          *              1             0             1 
    54 c53          *              0             0             1 
    55 c54          *              1             0             1 
    56 c55          *              1             0             1 
    57 c56          *              1             0             1 
    58 c57          *              1             0             1 
    59 c58          *              1             0             1 
    60 c59          *              1             0             1 
    61 c60          *              1             0             1 
    62 c61          *              1             0             1 
    63 c62          *              1             0             1 
    64 c63          *              1             0             1 
    65 c64          *              1             0             1 
    66 c65          *              0             0             1 
    67 c66          *              1             0             1 
    68 c67          *              1             0             1 
    69 c68          *              1             0             1 
    70 c69          *              1             0             1 
    71 c70          *              1             0             1 
    72 c71          *              1             0             1 
    73 c72          *              0             0             1 
    74 c73          *              0             0             1 
    75 s6           *              0             0             1 
    76 s12          *              0             0             1 
    77 s16          *              1             0             1 
    78 s17          *              0             0             1 
    79 s21          *              0             0             1 
    80 s22          *              0             0             1 
    81 s28          *              0             0             1 
    82 s30          *              0             0             1 
    83 s31          *              0             0             1 
    84 s5           *              0             0             1 
    85 s20          *              0             0             1 
    86 s9           *              0             0             1 
    87 s25          *              1             0             1 
    88 s32          *              0             0             1 
    89 s33          *              0             0             1 
    90 s36          *              0             0             1 
    91 s37          *              1             0             1 
    92 s1           *              1             0             1 
    93 s24          *              0             0             1 
    94 s26          *              0             0             1 
    95 s35          *              0             0             1 
    96 s38          *              0             0             1 
    97 s39          *              1             0             1 
    98 s2           *              0             0             1 
    99 s3           *              0             0             1 
   100 s4           *              0             0             1 
   101 s8           *              1             0             1 
   102 s0           *              0             0             1 
   103 s19          *              1             0             1 
   104 s23          *              0             0             1 
   105 s34          *              0             0             1 
   106 s7           *              0             0             1 
   107 s14          *              0             0             1 
   108 s15          *              0             0             1 
   109 s13          *              0             0             1 
   110 s11          *              0             0             1 
   111 s18          *              0             0             1 
   112 s29          *              0             0             1 
   113 s27          *              0             0             1 
   114 s10          *              0             0             1 

Integer feasibility conditions:

KKT.PE: max.abs.err = 0.00e+00 on row 0
        max.rel.err = 0.00e+00 on row 0
        High quality

KKT.PB: max.abs.err = 0.00e+00 on row 0
        max.rel.err = 0.00e+00 on row 0
        High quality

End of output
